Input: forum-13crafb.prec15.dzn
============================================================
Total Runtime: 2.7195 seconds
Input parsing: 0.0008 seconds
Constraint building: 0.6893 seconds
MaxSAT solving: 1.5749 seconds
============================================================

Total variables: 222922
Total clauses: 468398
MaxSAT found with cost: 0
NO SOLUTION FOUND
